unsat
(:added-eqs                   3848457
 :arith-eq-adapter            4911
 :arith-bound-propagations-lp 267680
 :arith-conflicts             604
 :arith-diseq                 298369
 :arith-fixed-eqs             393372
 :arith-lower                 196135
 :arith-make-feasible         112620
 :arith-max-columns           1457
 :arith-max-rows              856
 :arith-offset-eqs            132153
 :arith-upper                 427945
 :binary-propagations         17128048
 :conflicts                   33437
 :decisions                   2101922
 :del-clause                  35183
 :elim-unconstrained          2
 :max-memory                  59.17
 :memory                      37.71
 :minimized-lits              294778
 :mk-bool-var                 25582
 :mk-clause                   45628
 :mk-clause-binary            65216
 :num-allocs                  617364591
 :num-checks                  1
 :propagations                22926680
 :restarts                    180
 :rlimit-count                65034689
 :time                        89.33
 :total-time                  89.77)
